NAME : random_9
COMMENT : 60 random nodes
TYPE : TSP
DIMENSION : 60
EDGE_WEIGHT_TYPE : EUC_2D
NODE_COORD_SECTION
1 784 605
2 488 454
3 795 4
4 492 903
5 296 55
6 9 711
7 945 1
8 307 420
9 693 196
10 379 795
11 76 661
12 944 219
13 763 922
14 519 38
15 237 947
16 619 870
17 90 877
18 9 476
19 264 201
20 703 903
21 816 596
22 568 311
23 575 976
24 951 594
25 194 286
26 701 329
27 400 807
28 542 712
29 518 100
30 126 529
31 134 28
32 891 257
33 219 334
34 17 545
35 61 875
36 889 513
37 915 63
38 572 897
39 133 594
40 161 834
41 148 789
42 14 991
43 419 10
44 969 627
45 129 655
46 361 82
47 793 445
48 866 170
49 959 203
50 258 696
51 391 951
52 316 917
53 528 516
54 363 786
55 300 123
56 390 95
57 691 674
58 592 404
59 401 980
60 267 164
EOF